21
48
83
6
13
34
99
63
5
3
1
43
85
79
47
92
55
53
69
9
24
10
65
77
67
2
25
20
58
60
0
32
7
88
75
72
98
87
15
11
27
97
18
96
95
89
26
82
50
38
71
30
66
16
12
17
29
81
8
68
61
44
70
86
91
84
56
80
36
28
23
64
93
41
22
52
35
46
54
31
4
37
33
49
78
45
90
14
94
73
57
59
42
51
74
40
62
76
19
39
